column=7;
row=7;
Board=[|3,0,0,4,0,5,7|2,0,0,0,0,0,0|0,1,3,6,5,0,2|5,0,0,0,2,0,0|0,0,0,0,0,2,0|0,7,2,0,0,0,3|0,0,0,0,0,3,0|];
horizontal=[|1,1,0,0,1,0|0,1,0,0,0,1|0,0,0,1,1,0|0,0,1,0,1,0|0,0,1,0,0,0|0,0,0,0,0,0|1,0,0,0,1,0|];
vertical=[|1,0,0,0,0,0,1|0,0,0,0,0,0,0|0,0,0,1,0,0,0|0,0,0,0,0,1,1|0,1,0,0,0,0,0|0,0,0,0,0,0,0|];
